5 5
7 2 1 7 3 15 4 4 20 3 2 5 8 1 18 1 2 14 2 2 11 5 5 2 3 19 4 15 3 2 9 3 4 1 17 3 4 3 5 19 2 6
8 4 3 8 1 3 2 16 4 5 3 5 18 4 10 3 6 3 4 15 1 8 3 6 5 2 20 1 17 4 3 5 15 3 20 2 4 16 1 12 4 5 7 2 10 1 15 4 13 3 2 13 3 11 5 17 4 4 10 2 4 3 9 5 20
6 3 4 6 5 7 2 19 4 4 5 3 6 2 2 1 19 3 1 13 5 3 3 15 4 3 7 4 10 2 15 5 6 4 4 16 3 10 2 2 5 13 5 4 20 2 19 1 16 3 11 5 20
6 2 1 9 5 18 3 5 18 4 4 1 3 3 2 7 3 19 4 16 3 1 14 4 20 3 19 1 1 6 1 5 17
6 3 2 3 1 7 5 16 2 1 9 3 12 4 2 3 3 18 4 7 5 20 4 5 16 2 10 1 9 3 9 1 4 15 3 1 20 2 18 3 14